100
300
50
0 0
33 36
92 49
18 85
22 79
35 68
97 80
68 80
12 79
49 72
86 12
0 29
55 99
95 84
52 40
99 11
69 61
90 20
47 88
43 22
25 86
23 21
23 45
17 95
29 22
18 50
9 71
93 35
58 98
11 65
36 80
97 48
88 53
40 92
73 35
84 38
13 34
27 71
90 84
38 0
57 32
56 30
76 57
9 67
49 47
62 81
65 21
17 16
20 93
0 58
60 85
0 0
50
50
30
50
70
60
40
30
70
30
50
40
50
60
30
50
50
60
50
40
70
50
40
30
30
50
50
30
50
70
60
40
30
70
30
50
40
50
60
30
50
50
60
50
40
70
50
40
30
30
